50 50
48 10
41 7
39 15
2 12
30 21
25 10
13 11
44 3
46 24
14 25
22 11
8 23
31 16
36 17
11 18
49 5
1 6
5 4
23 25
43 4
26 7
40 22
42 14
28 16
15 18
50 20
3 2
24 9
7 24
35 9
10 13
34 5
21 23
20 15
17 19
32 19
16 17
27 14
29 1
45 6
47 2
9 8
19 20
38 12
33 13
6 3
18 22
37 8
12 1
4 21
